0000000000000000000000000000000000000000000000000000000000000000000000000010011111100000000000000011000000000000000000000000000000000000000000000000000000000000000000000000000000000000000000010001101000000000000000000000000000000000000000000000000000000000000000000000000000000000000000000000000000000000000000000000000000000000000000000000000000000001000000001000000000000000000000000000000000000000000000000000000000000000000000000000000000000000000000000000